\ENCODING=ISO-8859-1
\Problem name: IloCplex

Minimize
 obj1: 588.232947054141 x_0.1 + 542.147581383519 x_0.2 + 334.819354279289 x_0.3
       + 1096.68591675101 x_0.4 + 825.804456272791 x_0.5
       + 731.221580644335 x_0.6 + 72.027772421476 x_0.7
       + 1170.82236056543 x_0.8 + 793.106550218822 x_0.9
       + 2572.08572951992 x_0.10 + 529.499763928182 x_0.11
       + 507.079875364819 x_0.12 + 530.050940948132 x_0.13
       + 669.122559775113 x_0.14 + 141.209064864831 x_0.15
       + 588.232947054141 x_1.0 + 129.189782877749 x_1.2
       + 448.742687962712 x_1.3 + 1675.59004532732 x_1.4 + 1410.39604367 x_1.5
       + 1309.0611139286 x_1.6 + 606.684431974317 x_1.7
       + 1713.06187862552 x_1.8 + 1319.73482184869 x_1.9
       + 3155.36004284773 x_1.10 + 1107.47641058399 x_1.11
       + 1089.29518497054 x_1.12 + 1117.15710622992 x_1.13
       + 1251.38043775664 x_1.14 + 659.334512975015 x_1.15
       + 542.147581383519 x_2.0 + 129.189782877749 x_2.1
       + 483.011387029333 x_2.3 + 1638.82518896922 x_2.4
       + 1346.83666418761 x_2.5 + 1239.61163273019 x_2.6
       + 574.94347548259 x_2.7 + 1623.38319567501 x_2.8
       + 1228.51536416929 x_2.9 + 3085.69489742586 x_2.10
       + 1040.2124782947 x_2.11 + 1025.71438519697 x_2.12
       + 1059.8348928017 x_2.13 + 1211.21798203296 x_2.14
       + 588.367232262301 x_2.15 + 334.819354279289 x_3.0
       + 448.742687962712 x_3.1 + 483.011387029333 x_3.2
       + 1288.35088388218 x_3.4 + 1100.70386571503 x_3.5
       + 1024.03955001748 x_3.6 + 296.141857899217 x_3.7
       + 1487.48546211383 x_3.8 + 1120.32584545747 x_3.9
       + 2833.05718262092 x_3.10 + 829.000603136089 x_3.11
       + 799.65617611571 x_3.12 + 804.76704703908 x_3.13
       + 883.362326568209 x_3.14 + 472.055081531806 x_3.15
       + 1096.68591675101 x_4.0 + 1675.59004532732 x_4.1
       + 1638.82518896922 x_4.2 + 1288.35088388218 x_4.3
       + 440.101124742939 x_4.5 + 556.852763304628 x_4.6
       + 1069.25955688972 x_4.7 + 788.264549500991 x_4.8
       + 808.92644906691 x_4.9 + 1596.31607145953 x_4.10
       + 677.998525072142 x_4.11 + 670.41032211624 x_4.12
       + 613.822449898992 x_4.13 + 428.117974394909 x_4.14
       + 1076.73023548148 x_4.15 + 825.804456272791 x_5.0 + 1410.39604367 x_5.1
       + 1346.83666418761 x_5.2 + 1100.70386571503 x_5.3
       + 440.101124742939 x_5.4 + 125.936491931449 x_5.6
       + 825.009696912709 x_5.7 + 479.760356844957 x_5.8
       + 371.102411741018 x_5.9 + 1746.28290949663 x_5.10
       + 307.761271117729 x_5.11 + 321.460728550161 x_5.12
       + 298.041943356971 x_5.13 + 297.015151128692 x_5.14
       + 758.662639122291 x_5.15 + 731.221580644335 x_6.0
       + 1309.0611139286 x_6.1 + 1239.61163273019 x_6.2
       + 1024.03955001748 x_6.3 + 556.852763304628 x_6.4
       + 125.936491931449 x_6.5 + 738.504570060335 x_6.7
       + 489.654980573056 x_6.8 + 275.065446757676 x_6.9
       + 1846.88386207688 x_6.10 + 202.061871712602 x_6.11
       + 225.621364236634 x_6.12 + 225.204351645345 x_6.13
       + 317.001577283142 x_6.14 + 651.813623668606 x_6.15
       + 72.027772421476 x_7.0 + 606.684431974317 x_7.1 + 574.94347548259 x_7.2
       + 296.141857899217 x_7.3 + 1069.25955688972 x_7.4
       + 825.009696912709 x_7.5 + 738.504570060335 x_7.6
       + 1193.14584188187 x_7.8 + 824.224483984794 x_7.9
       + 2569.03892535711 x_7.10 + 539.43118189441 x_7.11
       + 512.884002480093 x_7.12 + 527.00094876575 x_7.13
       + 644.789112811313 x_7.14 + 203.960780543711 x_7.15
       + 1170.82236056543 x_8.0 + 1713.06187862552 x_8.1
       + 1623.38319567501 x_8.2 + 1487.48546211383 x_8.3
       + 788.264549500991 x_8.4 + 479.760356844957 x_8.5
       + 489.654980573056 x_8.6 + 1193.14584188187 x_8.7
       + 395.045566991961 x_8.9 + 1520.85041999534 x_8.10
       + 663.162875921142 x_8.11 + 696.77040694909 x_8.12
       + 711.922046294396 x_8.13 + 775.860812259519 x_8.14
       + 1062.58411431754 x_8.15 + 793.106550218822 x_9.0
       + 1319.73482184869 x_9.1 + 1228.51536416929 x_9.2
       + 1120.32584545747 x_9.3 + 808.92644906691 x_9.4
       + 371.102411741018 x_9.5 + 275.065446757676 x_9.6
       + 824.224483984794 x_9.7 + 395.045566991961 x_9.8
       + 1895.61520356849 x_9.10 + 340.828402572321 x_9.11
       + 379.610326519182 x_9.12 + 422.965719651132 x_9.13
       + 582.024913556112 x_9.14 + 675.69371759696 x_9.15
       + 2572.08572951992 x_10.0 + 3155.36004284773 x_10.1
       + 3085.69489742586 x_10.2 + 2833.05718262092 x_10.3
       + 1596.31607145953 x_10.4 + 1746.28290949663 x_10.5
       + 1846.88386207688 x_10.6 + 2569.03892535711 x_10.7
       + 1520.85041999534 x_10.8 + 1895.61520356849 x_10.9
       + 2047.99340819252 x_10.11 + 2066.39420246961 x_10.12
       + 2043.01076844935 x_10.13 + 1953.89098979447 x_10.14
       + 2498.62222034464 x_10.15 + 529.499763928182 x_11.0
       + 1107.47641058399 x_11.1 + 1040.2124782947 x_11.2
       + 829.000603136089 x_11.3 + 677.998525072142 x_11.4
       + 307.761271117729 x_11.5 + 202.061871712602 x_11.6
       + 539.43118189441 x_11.7 + 663.162875921142 x_11.8
       + 340.828402572321 x_11.9 + 2047.99340819252 x_11.10
       + 38.8329756778952 x_11.12 + 96.0832971957145 x_11.13
       + 308.812240690035 x_11.14 + 451.851745598044 x_11.15
       + 507.079875364819 x_12.0 + 1089.29518497054 x_12.1
       + 1025.71438519697 x_12.2 + 799.65617611571 x_12.3
       + 670.41032211624 x_12.4 + 321.460728550161 x_12.5
       + 225.621364236634 x_12.6 + 512.884002480093 x_12.7
       + 696.77040694909 x_12.8 + 379.610326519182 x_12.9
       + 2066.39420246961 x_12.10 + 38.8329756778952 x_12.11
       + 66.4830805543786 x_12.13 + 285.245508290665 x_12.14
       + 438.043376847544 x_12.15 + 530.050940948132 x_13.0
       + 1117.15710622992 x_13.1 + 1059.8348928017 x_13.2
       + 804.76704703908 x_13.3 + 613.822449898992 x_13.4
       + 298.041943356971 x_13.5 + 225.204351645345 x_13.6
       + 527.00094876575 x_13.7 + 711.922046294396 x_13.8
       + 422.965719651132 x_13.9 + 2043.01076844935 x_13.10
       + 96.0832971957145 x_13.11 + 66.4830805543786 x_13.12
       + 219.155196151038 x_13.14 + 476.388496922417 x_13.15
       + 669.122559775113 x_14.0 + 1251.38043775664 x_14.1
       + 1211.21798203296 x_14.2 + 883.362326568209 x_14.3
       + 428.117974394909 x_14.4 + 297.015151128692 x_14.5
       + 317.001577283142 x_14.6 + 644.789112811313 x_14.7
       + 775.860812259519 x_14.8 + 582.024913556112 x_14.9
       + 1953.89098979447 x_14.10 + 308.812240690035 x_14.11
       + 285.245508290665 x_14.12 + 219.155196151038 x_14.13
       + 651.417684746123 x_14.15 + 141.209064864831 x_15.0
       + 659.334512975015 x_15.1 + 588.367232262301 x_15.2
       + 472.055081531806 x_15.3 + 1076.73023548148 x_15.4
       + 758.662639122291 x_15.5 + 651.813623668606 x_15.6
       + 203.960780543711 x_15.7 + 1062.58411431754 x_15.8
       + 675.69371759696 x_15.9 + 2498.62222034464 x_15.10
       + 451.851745598044 x_15.11 + 438.043376847544 x_15.12
       + 476.388496922417 x_15.13 + 651.417684746123 x_15.14
Subject To
 inbound_0:   x_0.1 + x_0.2 + x_0.3 + x_0.4 + x_0.5 + x_0.6 + x_0.7 + x_0.8
              + x_0.9 + x_0.10 + x_0.11 + x_0.12 + x_0.13 + x_0.14 + x_0.15
               = 1
 inbound_1:   x_1.0 + x_1.2 + x_1.3 + x_1.4 + x_1.5 + x_1.6 + x_1.7 + x_1.8
              + x_1.9 + x_1.10 + x_1.11 + x_1.12 + x_1.13 + x_1.14 + x_1.15
               = 1
 inbound_2:   x_2.0 + x_2.1 + x_2.3 + x_2.4 + x_2.5 + x_2.6 + x_2.7 + x_2.8
              + x_2.9 + x_2.10 + x_2.11 + x_2.12 + x_2.13 + x_2.14 + x_2.15
               = 1
 inbound_3:   x_3.0 + x_3.1 + x_3.2 + x_3.4 + x_3.5 + x_3.6 + x_3.7 + x_3.8
              + x_3.9 + x_3.10 + x_3.11 + x_3.12 + x_3.13 + x_3.14 + x_3.15
               = 1
 inbound_4:   x_4.0 + x_4.1 + x_4.2 + x_4.3 + x_4.5 + x_4.6 + x_4.7 + x_4.8
              + x_4.9 + x_4.10 + x_4.11 + x_4.12 + x_4.13 + x_4.14 + x_4.15
               = 1
 inbound_5:   x_5.0 + x_5.1 + x_5.2 + x_5.3 + x_5.4 + x_5.6 + x_5.7 + x_5.8
              + x_5.9 + x_5.10 + x_5.11 + x_5.12 + x_5.13 + x_5.14 + x_5.15
               = 1
 inbound_6:   x_6.0 + x_6.1 + x_6.2 + x_6.3 + x_6.4 + x_6.5 + x_6.7 + x_6.8
              + x_6.9 + x_6.10 + x_6.11 + x_6.12 + x_6.13 + x_6.14 + x_6.15
               = 1
 inbound_7:   x_7.0 + x_7.1 + x_7.2 + x_7.3 + x_7.4 + x_7.5 + x_7.6 + x_7.8
              + x_7.9 + x_7.10 + x_7.11 + x_7.12 + x_7.13 + x_7.14 + x_7.15
               = 1
 inbound_8:   x_8.0 + x_8.1 + x_8.2 + x_8.3 + x_8.4 + x_8.5 + x_8.6 + x_8.7
              + x_8.9 + x_8.10 + x_8.11 + x_8.12 + x_8.13 + x_8.14 + x_8.15
               = 1
 inbound_9:   x_9.0 + x_9.1 + x_9.2 + x_9.3 + x_9.4 + x_9.5 + x_9.6 + x_9.7
              + x_9.8 + x_9.10 + x_9.11 + x_9.12 + x_9.13 + x_9.14 + x_9.15
               = 1
 inbound_10:  x_10.0 + x_10.1 + x_10.2 + x_10.3 + x_10.4 + x_10.5 + x_10.6
              + x_10.7 + x_10.8 + x_10.9 + x_10.11 + x_10.12 + x_10.13
              + x_10.14 + x_10.15  = 1
 inbound_11:  x_11.0 + x_11.1 + x_11.2 + x_11.3 + x_11.4 + x_11.5 + x_11.6
              + x_11.7 + x_11.8 + x_11.9 + x_11.10 + x_11.12 + x_11.13
              + x_11.14 + x_11.15  = 1
 inbound_12:  x_12.0 + x_12.1 + x_12.2 + x_12.3 + x_12.4 + x_12.5 + x_12.6
              + x_12.7 + x_12.8 + x_12.9 + x_12.10 + x_12.11 + x_12.13
              + x_12.14 + x_12.15  = 1
 inbound_13:  x_13.0 + x_13.1 + x_13.2 + x_13.3 + x_13.4 + x_13.5 + x_13.6
              + x_13.7 + x_13.8 + x_13.9 + x_13.10 + x_13.11 + x_13.12
              + x_13.14 + x_13.15  = 1
 inbound_14:  x_14.0 + x_14.1 + x_14.2 + x_14.3 + x_14.4 + x_14.5 + x_14.6
              + x_14.7 + x_14.8 + x_14.9 + x_14.10 + x_14.11 + x_14.12
              + x_14.13 + x_14.15  = 1
 inbound_15:  x_15.0 + x_15.1 + x_15.2 + x_15.3 + x_15.4 + x_15.5 + x_15.6
              + x_15.7 + x_15.8 + x_15.9 + x_15.10 + x_15.11 + x_15.12
              + x_15.13 + x_15.14  = 1
 outbound_0:  x_1.0 + x_2.0 + x_3.0 + x_4.0 + x_5.0 + x_6.0 + x_7.0 + x_8.0
              + x_9.0 + x_10.0 + x_11.0 + x_12.0 + x_13.0 + x_14.0 + x_15.0
               = 1
 outbound_1:  x_0.1 + x_2.1 + x_3.1 + x_4.1 + x_5.1 + x_6.1 + x_7.1 + x_8.1
              + x_9.1 + x_10.1 + x_11.1 + x_12.1 + x_13.1 + x_14.1 + x_15.1
               = 1
 outbound_2:  x_0.2 + x_1.2 + x_3.2 + x_4.2 + x_5.2 + x_6.2 + x_7.2 + x_8.2
              + x_9.2 + x_10.2 + x_11.2 + x_12.2 + x_13.2 + x_14.2 + x_15.2
               = 1
 outbound_3:  x_0.3 + x_1.3 + x_2.3 + x_4.3 + x_5.3 + x_6.3 + x_7.3 + x_8.3
              + x_9.3 + x_10.3 + x_11.3 + x_12.3 + x_13.3 + x_14.3 + x_15.3
               = 1
 outbound_4:  x_0.4 + x_1.4 + x_2.4 + x_3.4 + x_5.4 + x_6.4 + x_7.4 + x_8.4
              + x_9.4 + x_10.4 + x_11.4 + x_12.4 + x_13.4 + x_14.4 + x_15.4
               = 1
 outbound_5:  x_0.5 + x_1.5 + x_2.5 + x_3.5 + x_4.5 + x_6.5 + x_7.5 + x_8.5
              + x_9.5 + x_10.5 + x_11.5 + x_12.5 + x_13.5 + x_14.5 + x_15.5
               = 1
 outbound_6:  x_0.6 + x_1.6 + x_2.6 + x_3.6 + x_4.6 + x_5.6 + x_7.6 + x_8.6
              + x_9.6 + x_10.6 + x_11.6 + x_12.6 + x_13.6 + x_14.6 + x_15.6
               = 1
 outbound_7:  x_0.7 + x_1.7 + x_2.7 + x_3.7 + x_4.7 + x_5.7 + x_6.7 + x_8.7
              + x_9.7 + x_10.7 + x_11.7 + x_12.7 + x_13.7 + x_14.7 + x_15.7
               = 1
 outbound_8:  x_0.8 + x_1.8 + x_2.8 + x_3.8 + x_4.8 + x_5.8 + x_6.8 + x_7.8
              + x_9.8 + x_10.8 + x_11.8 + x_12.8 + x_13.8 + x_14.8 + x_15.8
               = 1
 outbound_9:  x_0.9 + x_1.9 + x_2.9 + x_3.9 + x_4.9 + x_5.9 + x_6.9 + x_7.9
              + x_8.9 + x_10.9 + x_11.9 + x_12.9 + x_13.9 + x_14.9 + x_15.9
               = 1
 outbound_10: x_0.10 + x_1.10 + x_2.10 + x_3.10 + x_4.10 + x_5.10 + x_6.10
              + x_7.10 + x_8.10 + x_9.10 + x_11.10 + x_12.10 + x_13.10
              + x_14.10 + x_15.10  = 1
 outbound_11: x_0.11 + x_1.11 + x_2.11 + x_3.11 + x_4.11 + x_5.11 + x_6.11
              + x_7.11 + x_8.11 + x_9.11 + x_10.11 + x_12.11 + x_13.11
              + x_14.11 + x_15.11  = 1
 outbound_12: x_0.12 + x_1.12 + x_2.12 + x_3.12 + x_4.12 + x_5.12 + x_6.12
              + x_7.12 + x_8.12 + x_9.12 + x_10.12 + x_11.12 + x_13.12
              + x_14.12 + x_15.12  = 1
 outbound_13: x_0.13 + x_1.13 + x_2.13 + x_3.13 + x_4.13 + x_5.13 + x_6.13
              + x_7.13 + x_8.13 + x_9.13 + x_10.13 + x_11.13 + x_12.13
              + x_14.13 + x_15.13  = 1
 outbound_14: x_0.14 + x_1.14 + x_2.14 + x_3.14 + x_4.14 + x_5.14 + x_6.14
              + x_7.14 + x_8.14 + x_9.14 + x_10.14 + x_11.14 + x_12.14
              + x_13.14 + x_15.14  = 1
 outbound_15: x_0.15 + x_1.15 + x_2.15 + x_3.15 + x_4.15 + x_5.15 + x_6.15
              + x_7.15 + x_8.15 + x_9.15 + x_10.15 + x_11.15 + x_12.15
              + x_13.15 + x_14.15  = 1
 mtz_1_2:     15 x_1.2 + u_1 - u_2 <= 14
 mtz_1_3:     15 x_1.3 + u_1 - u_3 <= 14
 mtz_1_4:     15 x_1.4 + u_1 - u_4 <= 14
 mtz_1_5:     15 x_1.5 + u_1 - u_5 <= 14
 mtz_1_6:     15 x_1.6 + u_1 - u_6 <= 14
 mtz_1_7:     15 x_1.7 + u_1 - u_7 <= 14
 mtz_1_8:     15 x_1.8 + u_1 - u_8 <= 14
 mtz_1_9:     15 x_1.9 + u_1 - u_9 <= 14
 mtz_1_10:    15 x_1.10 + u_1 - u_10 <= 14
 mtz_1_11:    15 x_1.11 + u_1 - u_11 <= 14
 mtz_1_12:    15 x_1.12 + u_1 - u_12 <= 14
 mtz_1_13:    15 x_1.13 + u_1 - u_13 <= 14
 mtz_1_14:    15 x_1.14 + u_1 - u_14 <= 14
 mtz_1_15:    15 x_1.15 + u_1 - u_15 <= 14
 mtz_2_1:     15 x_2.1 - u_1 + u_2 <= 14
 mtz_2_3:     15 x_2.3 + u_2 - u_3 <= 14
 mtz_2_4:     15 x_2.4 + u_2 - u_4 <= 14
 mtz_2_5:     15 x_2.5 + u_2 - u_5 <= 14
 mtz_2_6:     15 x_2.6 + u_2 - u_6 <= 14
 mtz_2_7:     15 x_2.7 + u_2 - u_7 <= 14
 mtz_2_8:     15 x_2.8 + u_2 - u_8 <= 14
 mtz_2_9:     15 x_2.9 + u_2 - u_9 <= 14
 mtz_2_10:    15 x_2.10 + u_2 - u_10 <= 14
 mtz_2_11:    15 x_2.11 + u_2 - u_11 <= 14
 mtz_2_12:    15 x_2.12 + u_2 - u_12 <= 14
 mtz_2_13:    15 x_2.13 + u_2 - u_13 <= 14
 mtz_2_14:    15 x_2.14 + u_2 - u_14 <= 14
 mtz_2_15:    15 x_2.15 + u_2 - u_15 <= 14
 mtz_3_1:     15 x_3.1 - u_1 + u_3 <= 14
 mtz_3_2:     15 x_3.2 - u_2 + u_3 <= 14
 mtz_3_4:     15 x_3.4 + u_3 - u_4 <= 14
 mtz_3_5:     15 x_3.5 + u_3 - u_5 <= 14
 mtz_3_6:     15 x_3.6 + u_3 - u_6 <= 14
 mtz_3_7:     15 x_3.7 + u_3 - u_7 <= 14
 mtz_3_8:     15 x_3.8 + u_3 - u_8 <= 14
 mtz_3_9:     15 x_3.9 + u_3 - u_9 <= 14
 mtz_3_10:    15 x_3.10 + u_3 - u_10 <= 14
 mtz_3_11:    15 x_3.11 + u_3 - u_11 <= 14
 mtz_3_12:    15 x_3.12 + u_3 - u_12 <= 14
 mtz_3_13:    15 x_3.13 + u_3 - u_13 <= 14
 mtz_3_14:    15 x_3.14 + u_3 - u_14 <= 14
 mtz_3_15:    15 x_3.15 + u_3 - u_15 <= 14
 mtz_4_1:     15 x_4.1 - u_1 + u_4 <= 14
 mtz_4_2:     15 x_4.2 - u_2 + u_4 <= 14
 mtz_4_3:     15 x_4.3 - u_3 + u_4 <= 14
 mtz_4_5:     15 x_4.5 + u_4 - u_5 <= 14
 mtz_4_6:     15 x_4.6 + u_4 - u_6 <= 14
 mtz_4_7:     15 x_4.7 + u_4 - u_7 <= 14
 mtz_4_8:     15 x_4.8 + u_4 - u_8 <= 14
 mtz_4_9:     15 x_4.9 + u_4 - u_9 <= 14
 mtz_4_10:    15 x_4.10 + u_4 - u_10 <= 14
 mtz_4_11:    15 x_4.11 + u_4 - u_11 <= 14
 mtz_4_12:    15 x_4.12 + u_4 - u_12 <= 14
 mtz_4_13:    15 x_4.13 + u_4 - u_13 <= 14
 mtz_4_14:    15 x_4.14 + u_4 - u_14 <= 14
 mtz_4_15:    15 x_4.15 + u_4 - u_15 <= 14
 mtz_5_1:     15 x_5.1 - u_1 + u_5 <= 14
 mtz_5_2:     15 x_5.2 - u_2 + u_5 <= 14
 mtz_5_3:     15 x_5.3 - u_3 + u_5 <= 14
 mtz_5_4:     15 x_5.4 - u_4 + u_5 <= 14
 mtz_5_6:     15 x_5.6 + u_5 - u_6 <= 14
 mtz_5_7:     15 x_5.7 + u_5 - u_7 <= 14
 mtz_5_8:     15 x_5.8 + u_5 - u_8 <= 14
 mtz_5_9:     15 x_5.9 + u_5 - u_9 <= 14
 mtz_5_10:    15 x_5.10 + u_5 - u_10 <= 14
 mtz_5_11:    15 x_5.11 + u_5 - u_11 <= 14
 mtz_5_12:    15 x_5.12 + u_5 - u_12 <= 14
 mtz_5_13:    15 x_5.13 + u_5 - u_13 <= 14
 mtz_5_14:    15 x_5.14 + u_5 - u_14 <= 14
 mtz_5_15:    15 x_5.15 + u_5 - u_15 <= 14
 mtz_6_1:     15 x_6.1 - u_1 + u_6 <= 14
 mtz_6_2:     15 x_6.2 - u_2 + u_6 <= 14
 mtz_6_3:     15 x_6.3 - u_3 + u_6 <= 14
 mtz_6_4:     15 x_6.4 - u_4 + u_6 <= 14
 mtz_6_5:     15 x_6.5 - u_5 + u_6 <= 14
 mtz_6_7:     15 x_6.7 + u_6 - u_7 <= 14
 mtz_6_8:     15 x_6.8 + u_6 - u_8 <= 14
 mtz_6_9:     15 x_6.9 + u_6 - u_9 <= 14
 mtz_6_10:    15 x_6.10 + u_6 - u_10 <= 14
 mtz_6_11:    15 x_6.11 + u_6 - u_11 <= 14
 mtz_6_12:    15 x_6.12 + u_6 - u_12 <= 14
 mtz_6_13:    15 x_6.13 + u_6 - u_13 <= 14
 mtz_6_14:    15 x_6.14 + u_6 - u_14 <= 14
 mtz_6_15:    15 x_6.15 + u_6 - u_15 <= 14
 mtz_7_1:     15 x_7.1 - u_1 + u_7 <= 14
 mtz_7_2:     15 x_7.2 - u_2 + u_7 <= 14
 mtz_7_3:     15 x_7.3 - u_3 + u_7 <= 14
 mtz_7_4:     15 x_7.4 - u_4 + u_7 <= 14
 mtz_7_5:     15 x_7.5 - u_5 + u_7 <= 14
 mtz_7_6:     15 x_7.6 - u_6 + u_7 <= 14
 mtz_7_8:     15 x_7.8 + u_7 - u_8 <= 14
 mtz_7_9:     15 x_7.9 + u_7 - u_9 <= 14
 mtz_7_10:    15 x_7.10 + u_7 - u_10 <= 14
 mtz_7_11:    15 x_7.11 + u_7 - u_11 <= 14
 mtz_7_12:    15 x_7.12 + u_7 - u_12 <= 14
 mtz_7_13:    15 x_7.13 + u_7 - u_13 <= 14
 mtz_7_14:    15 x_7.14 + u_7 - u_14 <= 14
 mtz_7_15:    15 x_7.15 + u_7 - u_15 <= 14
 mtz_8_1:     15 x_8.1 - u_1 + u_8 <= 14
 mtz_8_2:     15 x_8.2 - u_2 + u_8 <= 14
 mtz_8_3:     15 x_8.3 - u_3 + u_8 <= 14
 mtz_8_4:     15 x_8.4 - u_4 + u_8 <= 14
 mtz_8_5:     15 x_8.5 - u_5 + u_8 <= 14
 mtz_8_6:     15 x_8.6 - u_6 + u_8 <= 14
 mtz_8_7:     15 x_8.7 - u_7 + u_8 <= 14
 mtz_8_9:     15 x_8.9 + u_8 - u_9 <= 14
 mtz_8_10:    15 x_8.10 + u_8 - u_10 <= 14
 mtz_8_11:    15 x_8.11 + u_8 - u_11 <= 14
 mtz_8_12:    15 x_8.12 + u_8 - u_12 <= 14
 mtz_8_13:    15 x_8.13 + u_8 - u_13 <= 14
 mtz_8_14:    15 x_8.14 + u_8 - u_14 <= 14
 mtz_8_15:    15 x_8.15 + u_8 - u_15 <= 14
 mtz_9_1:     15 x_9.1 - u_1 + u_9 <= 14
 mtz_9_2:     15 x_9.2 - u_2 + u_9 <= 14
 mtz_9_3:     15 x_9.3 - u_3 + u_9 <= 14
 mtz_9_4:     15 x_9.4 - u_4 + u_9 <= 14
 mtz_9_5:     15 x_9.5 - u_5 + u_9 <= 14
 mtz_9_6:     15 x_9.6 - u_6 + u_9 <= 14
 mtz_9_7:     15 x_9.7 - u_7 + u_9 <= 14
 mtz_9_8:     15 x_9.8 - u_8 + u_9 <= 14
 mtz_9_10:    15 x_9.10 + u_9 - u_10 <= 14
 mtz_9_11:    15 x_9.11 + u_9 - u_11 <= 14
 mtz_9_12:    15 x_9.12 + u_9 - u_12 <= 14
 mtz_9_13:    15 x_9.13 + u_9 - u_13 <= 14
 mtz_9_14:    15 x_9.14 + u_9 - u_14 <= 14
 mtz_9_15:    15 x_9.15 + u_9 - u_15 <= 14
 mtz_10_1:    15 x_10.1 - u_1 + u_10 <= 14
 mtz_10_2:    15 x_10.2 - u_2 + u_10 <= 14
 mtz_10_3:    15 x_10.3 - u_3 + u_10 <= 14
 mtz_10_4:    15 x_10.4 - u_4 + u_10 <= 14
 mtz_10_5:    15 x_10.5 - u_5 + u_10 <= 14
 mtz_10_6:    15 x_10.6 - u_6 + u_10 <= 14
 mtz_10_7:    15 x_10.7 - u_7 + u_10 <= 14
 mtz_10_8:    15 x_10.8 - u_8 + u_10 <= 14
 mtz_10_9:    15 x_10.9 - u_9 + u_10 <= 14
 mtz_10_11:   15 x_10.11 + u_10 - u_11 <= 14
 mtz_10_12:   15 x_10.12 + u_10 - u_12 <= 14
 mtz_10_13:   15 x_10.13 + u_10 - u_13 <= 14
 mtz_10_14:   15 x_10.14 + u_10 - u_14 <= 14
 mtz_10_15:   15 x_10.15 + u_10 - u_15 <= 14
 mtz_11_1:    15 x_11.1 - u_1 + u_11 <= 14
 mtz_11_2:    15 x_11.2 - u_2 + u_11 <= 14
 mtz_11_3:    15 x_11.3 - u_3 + u_11 <= 14
 mtz_11_4:    15 x_11.4 - u_4 + u_11 <= 14
 mtz_11_5:    15 x_11.5 - u_5 + u_11 <= 14
 mtz_11_6:    15 x_11.6 - u_6 + u_11 <= 14
 mtz_11_7:    15 x_11.7 - u_7 + u_11 <= 14
 mtz_11_8:    15 x_11.8 - u_8 + u_11 <= 14
 mtz_11_9:    15 x_11.9 - u_9 + u_11 <= 14
 mtz_11_10:   15 x_11.10 - u_10 + u_11 <= 14
 mtz_11_12:   15 x_11.12 + u_11 - u_12 <= 14
 mtz_11_13:   15 x_11.13 + u_11 - u_13 <= 14
 mtz_11_14:   15 x_11.14 + u_11 - u_14 <= 14
 mtz_11_15:   15 x_11.15 + u_11 - u_15 <= 14
 mtz_12_1:    15 x_12.1 - u_1 + u_12 <= 14
 mtz_12_2:    15 x_12.2 - u_2 + u_12 <= 14
 mtz_12_3:    15 x_12.3 - u_3 + u_12 <= 14
 mtz_12_4:    15 x_12.4 - u_4 + u_12 <= 14
 mtz_12_5:    15 x_12.5 - u_5 + u_12 <= 14
 mtz_12_6:    15 x_12.6 - u_6 + u_12 <= 14
 mtz_12_7:    15 x_12.7 - u_7 + u_12 <= 14
 mtz_12_8:    15 x_12.8 - u_8 + u_12 <= 14
 mtz_12_9:    15 x_12.9 - u_9 + u_12 <= 14
 mtz_12_10:   15 x_12.10 - u_10 + u_12 <= 14
 mtz_12_11:   15 x_12.11 - u_11 + u_12 <= 14
 mtz_12_13:   15 x_12.13 + u_12 - u_13 <= 14
 mtz_12_14:   15 x_12.14 + u_12 - u_14 <= 14
 mtz_12_15:   15 x_12.15 + u_12 - u_15 <= 14
 mtz_13_1:    15 x_13.1 - u_1 + u_13 <= 14
 mtz_13_2:    15 x_13.2 - u_2 + u_13 <= 14
 mtz_13_3:    15 x_13.3 - u_3 + u_13 <= 14
 mtz_13_4:    15 x_13.4 - u_4 + u_13 <= 14
 mtz_13_5:    15 x_13.5 - u_5 + u_13 <= 14
 mtz_13_6:    15 x_13.6 - u_6 + u_13 <= 14
 mtz_13_7:    15 x_13.7 - u_7 + u_13 <= 14
 mtz_13_8:    15 x_13.8 - u_8 + u_13 <= 14
 mtz_13_9:    15 x_13.9 - u_9 + u_13 <= 14
 mtz_13_10:   15 x_13.10 - u_10 + u_13 <= 14
 mtz_13_11:   15 x_13.11 - u_11 + u_13 <= 14
 mtz_13_12:   15 x_13.12 - u_12 + u_13 <= 14
 mtz_13_14:   15 x_13.14 + u_13 - u_14 <= 14
 mtz_13_15:   15 x_13.15 + u_13 - u_15 <= 14
 mtz_14_1:    15 x_14.1 - u_1 + u_14 <= 14
 mtz_14_2:    15 x_14.2 - u_2 + u_14 <= 14
 mtz_14_3:    15 x_14.3 - u_3 + u_14 <= 14
 mtz_14_4:    15 x_14.4 - u_4 + u_14 <= 14
 mtz_14_5:    15 x_14.5 - u_5 + u_14 <= 14
 mtz_14_6:    15 x_14.6 - u_6 + u_14 <= 14
 mtz_14_7:    15 x_14.7 - u_7 + u_14 <= 14
 mtz_14_8:    15 x_14.8 - u_8 + u_14 <= 14
 mtz_14_9:    15 x_14.9 - u_9 + u_14 <= 14
 mtz_14_10:   15 x_14.10 - u_10 + u_14 <= 14
 mtz_14_11:   15 x_14.11 - u_11 + u_14 <= 14
 mtz_14_12:   15 x_14.12 - u_12 + u_14 <= 14
 mtz_14_13:   15 x_14.13 - u_13 + u_14 <= 14
 mtz_14_15:   15 x_14.15 + u_14 - u_15 <= 14
 mtz_15_1:    15 x_15.1 - u_1 + u_15 <= 14
 mtz_15_2:    15 x_15.2 - u_2 + u_15 <= 14
 mtz_15_3:    15 x_15.3 - u_3 + u_15 <= 14
 mtz_15_4:    15 x_15.4 - u_4 + u_15 <= 14
 mtz_15_5:    15 x_15.5 - u_5 + u_15 <= 14
 mtz_15_6:    15 x_15.6 - u_6 + u_15 <= 14
 mtz_15_7:    15 x_15.7 - u_7 + u_15 <= 14
 mtz_15_8:    15 x_15.8 - u_8 + u_15 <= 14
 mtz_15_9:    15 x_15.9 - u_9 + u_15 <= 14
 mtz_15_10:   15 x_15.10 - u_10 + u_15 <= 14
 mtz_15_11:   15 x_15.11 - u_11 + u_15 <= 14
 mtz_15_12:   15 x_15.12 - u_12 + u_15 <= 14
 mtz_15_13:   15 x_15.13 - u_13 + u_15 <= 14
 mtz_15_14:   15 x_15.14 - u_14 + u_15 <= 14
Bounds
 0 <= x_0.1 <= 1
 0 <= x_0.2 <= 1
 0 <= x_0.3 <= 1
 0 <= x_0.4 <= 1
 0 <= x_0.5 <= 1
 0 <= x_0.6 <= 1
 0 <= x_0.7 <= 1
 0 <= x_0.8 <= 1
 0 <= x_0.9 <= 1
 0 <= x_0.10 <= 1
 0 <= x_0.11 <= 1
 0 <= x_0.12 <= 1
 0 <= x_0.13 <= 1
 0 <= x_0.14 <= 1
 0 <= x_0.15 <= 1
 0 <= x_1.0 <= 1
 0 <= x_1.2 <= 1
 0 <= x_1.3 <= 1
 0 <= x_1.4 <= 1
 0 <= x_1.5 <= 1
 0 <= x_1.6 <= 1
 0 <= x_1.7 <= 1
 0 <= x_1.8 <= 1
 0 <= x_1.9 <= 1
 0 <= x_1.10 <= 1
 0 <= x_1.11 <= 1
 0 <= x_1.12 <= 1
 0 <= x_1.13 <= 1
 0 <= x_1.14 <= 1
 0 <= x_1.15 <= 1
 0 <= x_2.0 <= 1
 0 <= x_2.1 <= 1
 0 <= x_2.3 <= 1
 0 <= x_2.4 <= 1
 0 <= x_2.5 <= 1
 0 <= x_2.6 <= 1
 0 <= x_2.7 <= 1
 0 <= x_2.8 <= 1
 0 <= x_2.9 <= 1
 0 <= x_2.10 <= 1
 0 <= x_2.11 <= 1
 0 <= x_2.12 <= 1
 0 <= x_2.13 <= 1
 0 <= x_2.14 <= 1
 0 <= x_2.15 <= 1
 0 <= x_3.0 <= 1
 0 <= x_3.1 <= 1
 0 <= x_3.2 <= 1
 0 <= x_3.4 <= 1
 0 <= x_3.5 <= 1
 0 <= x_3.6 <= 1
 0 <= x_3.7 <= 1
 0 <= x_3.8 <= 1
 0 <= x_3.9 <= 1
 0 <= x_3.10 <= 1
 0 <= x_3.11 <= 1
 0 <= x_3.12 <= 1
 0 <= x_3.13 <= 1
 0 <= x_3.14 <= 1
 0 <= x_3.15 <= 1
 0 <= x_4.0 <= 1
 0 <= x_4.1 <= 1
 0 <= x_4.2 <= 1
 0 <= x_4.3 <= 1
 0 <= x_4.5 <= 1
 0 <= x_4.6 <= 1
 0 <= x_4.7 <= 1
 0 <= x_4.8 <= 1
 0 <= x_4.9 <= 1
 0 <= x_4.10 <= 1
 0 <= x_4.11 <= 1
 0 <= x_4.12 <= 1
 0 <= x_4.13 <= 1
 0 <= x_4.14 <= 1
 0 <= x_4.15 <= 1
 0 <= x_5.0 <= 1
 0 <= x_5.1 <= 1
 0 <= x_5.2 <= 1
 0 <= x_5.3 <= 1
 0 <= x_5.4 <= 1
 0 <= x_5.6 <= 1
 0 <= x_5.7 <= 1
 0 <= x_5.8 <= 1
 0 <= x_5.9 <= 1
 0 <= x_5.10 <= 1
 0 <= x_5.11 <= 1
 0 <= x_5.12 <= 1
 0 <= x_5.13 <= 1
 0 <= x_5.14 <= 1
 0 <= x_5.15 <= 1
 0 <= x_6.0 <= 1
 0 <= x_6.1 <= 1
 0 <= x_6.2 <= 1
 0 <= x_6.3 <= 1
 0 <= x_6.4 <= 1
 0 <= x_6.5 <= 1
 0 <= x_6.7 <= 1
 0 <= x_6.8 <= 1
 0 <= x_6.9 <= 1
 0 <= x_6.10 <= 1
 0 <= x_6.11 <= 1
 0 <= x_6.12 <= 1
 0 <= x_6.13 <= 1
 0 <= x_6.14 <= 1
 0 <= x_6.15 <= 1
 0 <= x_7.0 <= 1
 0 <= x_7.1 <= 1
 0 <= x_7.2 <= 1
 0 <= x_7.3 <= 1
 0 <= x_7.4 <= 1
 0 <= x_7.5 <= 1
 0 <= x_7.6 <= 1
 0 <= x_7.8 <= 1
 0 <= x_7.9 <= 1
 0 <= x_7.10 <= 1
 0 <= x_7.11 <= 1
 0 <= x_7.12 <= 1
 0 <= x_7.13 <= 1
 0 <= x_7.14 <= 1
 0 <= x_7.15 <= 1
 0 <= x_8.0 <= 1
 0 <= x_8.1 <= 1
 0 <= x_8.2 <= 1
 0 <= x_8.3 <= 1
 0 <= x_8.4 <= 1
 0 <= x_8.5 <= 1
 0 <= x_8.6 <= 1
 0 <= x_8.7 <= 1
 0 <= x_8.9 <= 1
 0 <= x_8.10 <= 1
 0 <= x_8.11 <= 1
 0 <= x_8.12 <= 1
 0 <= x_8.13 <= 1
 0 <= x_8.14 <= 1
 0 <= x_8.15 <= 1
 0 <= x_9.0 <= 1
 0 <= x_9.1 <= 1
 0 <= x_9.2 <= 1
 0 <= x_9.3 <= 1
 0 <= x_9.4 <= 1
 0 <= x_9.5 <= 1
 0 <= x_9.6 <= 1
 0 <= x_9.7 <= 1
 0 <= x_9.8 <= 1
 0 <= x_9.10 <= 1
 0 <= x_9.11 <= 1
 0 <= x_9.12 <= 1
 0 <= x_9.13 <= 1
 0 <= x_9.14 <= 1
 0 <= x_9.15 <= 1
 0 <= x_10.0 <= 1
 0 <= x_10.1 <= 1
 0 <= x_10.2 <= 1
 0 <= x_10.3 <= 1
 0 <= x_10.4 <= 1
 0 <= x_10.5 <= 1
 0 <= x_10.6 <= 1
 0 <= x_10.7 <= 1
 0 <= x_10.8 <= 1
 0 <= x_10.9 <= 1
 0 <= x_10.11 <= 1
 0 <= x_10.12 <= 1
 0 <= x_10.13 <= 1
 0 <= x_10.14 <= 1
 0 <= x_10.15 <= 1
 0 <= x_11.0 <= 1
 0 <= x_11.1 <= 1
 0 <= x_11.2 <= 1
 0 <= x_11.3 <= 1
 0 <= x_11.4 <= 1
 0 <= x_11.5 <= 1
 0 <= x_11.6 <= 1
 0 <= x_11.7 <= 1
 0 <= x_11.8 <= 1
 0 <= x_11.9 <= 1
 0 <= x_11.10 <= 1
 0 <= x_11.12 <= 1
 0 <= x_11.13 <= 1
 0 <= x_11.14 <= 1
 0 <= x_11.15 <= 1
 0 <= x_12.0 <= 1
 0 <= x_12.1 <= 1
 0 <= x_12.2 <= 1
 0 <= x_12.3 <= 1
 0 <= x_12.4 <= 1
 0 <= x_12.5 <= 1
 0 <= x_12.6 <= 1
 0 <= x_12.7 <= 1
 0 <= x_12.8 <= 1
 0 <= x_12.9 <= 1
 0 <= x_12.10 <= 1
 0 <= x_12.11 <= 1
 0 <= x_12.13 <= 1
 0 <= x_12.14 <= 1
 0 <= x_12.15 <= 1
 0 <= x_13.0 <= 1
 0 <= x_13.1 <= 1
 0 <= x_13.2 <= 1
 0 <= x_13.3 <= 1
 0 <= x_13.4 <= 1
 0 <= x_13.5 <= 1
 0 <= x_13.6 <= 1
 0 <= x_13.7 <= 1
 0 <= x_13.8 <= 1
 0 <= x_13.9 <= 1
 0 <= x_13.10 <= 1
 0 <= x_13.11 <= 1
 0 <= x_13.12 <= 1
 0 <= x_13.14 <= 1
 0 <= x_13.15 <= 1
 0 <= x_14.0 <= 1
 0 <= x_14.1 <= 1
 0 <= x_14.2 <= 1
 0 <= x_14.3 <= 1
 0 <= x_14.4 <= 1
 0 <= x_14.5 <= 1
 0 <= x_14.6 <= 1
 0 <= x_14.7 <= 1
 0 <= x_14.8 <= 1
 0 <= x_14.9 <= 1
 0 <= x_14.10 <= 1
 0 <= x_14.11 <= 1
 0 <= x_14.12 <= 1
 0 <= x_14.13 <= 1
 0 <= x_14.15 <= 1
 0 <= x_15.0 <= 1
 0 <= x_15.1 <= 1
 0 <= x_15.2 <= 1
 0 <= x_15.3 <= 1
 0 <= x_15.4 <= 1
 0 <= x_15.5 <= 1
 0 <= x_15.6 <= 1
 0 <= x_15.7 <= 1
 0 <= x_15.8 <= 1
 0 <= x_15.9 <= 1
 0 <= x_15.10 <= 1
 0 <= x_15.11 <= 1
 0 <= x_15.12 <= 1
 0 <= x_15.13 <= 1
 0 <= x_15.14 <= 1
 1 <= u_1 <= 15
 1 <= u_2 <= 15
 1 <= u_3 <= 15
 1 <= u_4 <= 15
 1 <= u_5 <= 15
 1 <= u_6 <= 15
 1 <= u_7 <= 15
 1 <= u_8 <= 15
 1 <= u_9 <= 15
 1 <= u_10 <= 15
 1 <= u_11 <= 15
 1 <= u_12 <= 15
 1 <= u_13 <= 15
 1 <= u_14 <= 15
 1 <= u_15 <= 15
Binaries
 x_0.1  x_0.2  x_0.3  x_0.4  x_0.5  x_0.6  x_0.7  x_0.8  x_0.9  x_0.10  x_0.11 
 x_0.12  x_0.13  x_0.14  x_0.15  x_1.0  x_1.2  x_1.3  x_1.4  x_1.5  x_1.6 
 x_1.7  x_1.8  x_1.9  x_1.10  x_1.11  x_1.12  x_1.13  x_1.14  x_1.15  x_2.0 
 x_2.1  x_2.3  x_2.4  x_2.5  x_2.6  x_2.7  x_2.8  x_2.9  x_2.10  x_2.11 
 x_2.12  x_2.13  x_2.14  x_2.15  x_3.0  x_3.1  x_3.2  x_3.4  x_3.5  x_3.6 
 x_3.7  x_3.8  x_3.9  x_3.10  x_3.11  x_3.12  x_3.13  x_3.14  x_3.15  x_4.0 
 x_4.1  x_4.2  x_4.3  x_4.5  x_4.6  x_4.7  x_4.8  x_4.9  x_4.10  x_4.11 
 x_4.12  x_4.13  x_4.14  x_4.15  x_5.0  x_5.1  x_5.2  x_5.3  x_5.4  x_5.6 
 x_5.7  x_5.8  x_5.9  x_5.10  x_5.11  x_5.12  x_5.13  x_5.14  x_5.15  x_6.0 
 x_6.1  x_6.2  x_6.3  x_6.4  x_6.5  x_6.7  x_6.8  x_6.9  x_6.10  x_6.11 
 x_6.12  x_6.13  x_6.14  x_6.15  x_7.0  x_7.1  x_7.2  x_7.3  x_7.4  x_7.5 
 x_7.6  x_7.8  x_7.9  x_7.10  x_7.11  x_7.12  x_7.13  x_7.14  x_7.15  x_8.0 
 x_8.1  x_8.2  x_8.3  x_8.4  x_8.5  x_8.6  x_8.7  x_8.9  x_8.10  x_8.11 
 x_8.12  x_8.13  x_8.14  x_8.15  x_9.0  x_9.1  x_9.2  x_9.3  x_9.4  x_9.5 
 x_9.6  x_9.7  x_9.8  x_9.10  x_9.11  x_9.12  x_9.13  x_9.14  x_9.15  x_10.0 
 x_10.1  x_10.2  x_10.3  x_10.4  x_10.5  x_10.6  x_10.7  x_10.8  x_10.9 
 x_10.11  x_10.12  x_10.13  x_10.14  x_10.15  x_11.0  x_11.1  x_11.2  x_11.3 
 x_11.4  x_11.5  x_11.6  x_11.7  x_11.8  x_11.9  x_11.10  x_11.12  x_11.13 
 x_11.14  x_11.15  x_12.0  x_12.1  x_12.2  x_12.3  x_12.4  x_12.5  x_12.6 
 x_12.7  x_12.8  x_12.9  x_12.10  x_12.11  x_12.13  x_12.14  x_12.15  x_13.0 
 x_13.1  x_13.2  x_13.3  x_13.4  x_13.5  x_13.6  x_13.7  x_13.8  x_13.9 
 x_13.10  x_13.11  x_13.12  x_13.14  x_13.15  x_14.0  x_14.1  x_14.2  x_14.3 
 x_14.4  x_14.5  x_14.6  x_14.7  x_14.8  x_14.9  x_14.10  x_14.11  x_14.12 
 x_14.13  x_14.15  x_15.0  x_15.1  x_15.2  x_15.3  x_15.4  x_15.5  x_15.6 
 x_15.7  x_15.8  x_15.9  x_15.10  x_15.11  x_15.12  x_15.13  x_15.14 
Generals
 u_1  u_2  u_3  u_4  u_5  u_6  u_7  u_8  u_9  u_10  u_11  u_12  u_13  u_14 
 u_15 
End
